10  601
1   6   41    23    32    19    50    15    
2   4   1    37    6    14    
3   4   11    49    40    30    
4   4   16    8    33    20    
5   5   47    3    39    24    9    
6   5   26    38    43    5    45    
7   5   21    2    12    7    28    
8   5   17    18    22    44    25    
9   7   46    36    48    4    13    34    35    
10   5   31    42    27    29    10    

